(set-info :smt-lib-version 2.6)
(set-logic QF_LRA)
(set-info :source |
TLP-GP automated DTP to SMT-LIB encoding for planning
by F.Maris and P.Regnier, IRIT - Universite Paul Sabatier, Toulouse

|)
(set-info :category "industrial")
(set-info :status sat)
(declare-fun St_spy_variable () Real)
(declare-fun t_Init_0 () Real)
(declare-fun t_Goal_6 () Real)
(declare-fun t_TREAT_CERAMIC2_p2_3 () Real)
(declare-fun t_BAKE_CERAMIC2_p2_k2_2 () Real)
(declare-fun t_TREAT_CERAMIC1_p1_3 () Real)
(declare-fun t_BAKE_CERAMIC1_p1_k2_2 () Real)
(declare-fun t_MAKE_STRUCTURE_p1_p2_4 () Real)
(declare-fun t_BAKE_STRUCTURE_p1_p2_k1_5 () Real)
(declare-fun t_BAKE_CERAMIC3_p4_k2_2 () Real)
(declare-fun t_TREAT_CERAMIC3_p4_3 () Real)
(declare-fun t_FIRE_KILN1_k1_2 () Real)
(declare-fun t_BAKE_CERAMIC3_p4_k1_3 () Real)
(declare-fun t_TREAT_CERAMIC2_p3_3 () Real)
(declare-fun t_FIRE_KILN2_k2_1 () Real)
(declare-fun t_BAKE_CERAMIC2_p3_k2_2 () Real)
(declare-fun t_MAKE_STRUCTURE_p3_p4_4 () Real)
(declare-fun t_BAKE_STRUCTURE_p3_p4_k1_5 () Real)
(declare-fun t_FIRE_KILN1_k1_1 () Real)
(declare-fun t_BAKE_CERAMIC3_p5_k1_2 () Real)
(assert (let ((?v_8 (- t_Goal_6 t_BAKE_STRUCTURE_p1_p2_k1_5)) (?v_17 (- t_Goal_6 t_BAKE_STRUCTURE_p3_p4_k1_5)) (?v_19 (- t_Goal_6 t_BAKE_CERAMIC3_p5_k1_2)) (?v_0 (- t_TREAT_CERAMIC2_p2_3 t_BAKE_CERAMIC2_p2_k2_2)) (?v_13 (- t_BAKE_CERAMIC2_p3_k2_2 t_FIRE_KILN2_k2_1))) (let ((?v_3 (<= ?v_13 10)) (?v_9 (- t_BAKE_CERAMIC3_p4_k2_2 t_FIRE_KILN2_k2_1))) (let ((?v_4 (<= ?v_9 15)) (?v_6 (- t_BAKE_CERAMIC1_p1_k2_2 t_FIRE_KILN2_k2_1))) (let ((?v_5 (<= ?v_6 5)) (?v_1 (- t_BAKE_CERAMIC2_p2_k2_2 t_FIRE_KILN2_k2_1)) (?v_2 (- t_TREAT_CERAMIC1_p1_3 t_BAKE_CERAMIC1_p1_k2_2)) (?v_18 (- t_BAKE_CERAMIC3_p5_k1_2 t_FIRE_KILN1_k1_1))) (let ((?v_14 (<= ?v_18 3)) (?v_16 (- t_BAKE_STRUCTURE_p3_p4_k1_5 t_FIRE_KILN1_k1_1))) (let ((?v_15 (<= ?v_16 5)) (?v_7 (- t_BAKE_STRUCTURE_p1_p2_k1_5 t_FIRE_KILN1_k1_1)) (?v_10 (- t_TREAT_CERAMIC3_p4_3 t_BAKE_CERAMIC3_p4_k2_2)) (?v_11 (- t_BAKE_CERAMIC3_p4_k1_3 t_FIRE_KILN1_k1_2)) (?v_12 (- t_TREAT_CERAMIC2_p3_3 t_BAKE_CERAMIC2_p3_k2_2)) (?v_25 (- t_BAKE_CERAMIC3_p4_k1_3 t_FIRE_KILN1_k1_1)) (?v_24 (> (- t_FIRE_KILN1_k1_2 t_FIRE_KILN1_k1_1) 8)) (?v_23 (> (- t_FIRE_KILN1_k1_1 t_FIRE_KILN1_k1_2) 8)) (?v_22 (- t_BAKE_CERAMIC3_p4_k2_2 t_BAKE_CERAMIC3_p4_k1_3)) (?v_20 (- t_BAKE_CERAMIC3_p4_k1_3 t_BAKE_CERAMIC3_p4_k2_2))) (let ((?v_21 (or (< ?v_20 5) (> ?v_20 5)))) (and (= St_spy_variable (+ 1 t_Init_0)) (>= t_Goal_6 t_Init_0) (>= (- t_TREAT_CERAMIC2_p2_3 t_Init_0) 0) (>= (- t_Goal_6 t_TREAT_CERAMIC2_p2_3) 2) (>= (- t_BAKE_CERAMIC2_p2_k2_2 t_Init_0) 0) (>= (- t_Goal_6 t_BAKE_CERAMIC2_p2_k2_2) 10) (>= (- t_TREAT_CERAMIC1_p1_3 t_Init_0) 0) (>= (- t_Goal_6 t_TREAT_CERAMIC1_p1_3) 3) (>= (- t_BAKE_CERAMIC1_p1_k2_2 t_Init_0) 0) (>= (- t_Goal_6 t_BAKE_CERAMIC1_p1_k2_2) 15) (>= (- t_MAKE_STRUCTURE_p1_p2_4 t_Init_0) 0) (>= (- t_Goal_6 t_MAKE_STRUCTURE_p1_p2_4) 1) (>= (- t_BAKE_STRUCTURE_p1_p2_k1_5 t_Init_0) 0) (>= ?v_8 3) (>= (- t_BAKE_CERAMIC3_p4_k2_2 t_Init_0) 0) (>= (- t_Goal_6 t_BAKE_CERAMIC3_p4_k2_2) 5) (>= (- t_TREAT_CERAMIC3_p4_3 t_Init_0) 0) (>= (- t_Goal_6 t_TREAT_CERAMIC3_p4_3) 1) (>= (- t_FIRE_KILN1_k1_2 t_Init_0) 0) (>= (- t_Goal_6 t_FIRE_KILN1_k1_2) 8) (>= (- t_BAKE_CERAMIC3_p4_k1_3 t_Init_0) 0) (>= (- t_Goal_6 t_BAKE_CERAMIC3_p4_k1_3) 5) (>= (- t_TREAT_CERAMIC2_p3_3 t_Init_0) 0) (>= (- t_Goal_6 t_TREAT_CERAMIC2_p3_3) 2) (>= (- t_FIRE_KILN2_k2_1 t_Init_0) 0) (>= (- t_Goal_6 t_FIRE_KILN2_k2_1) 20) (>= (- t_BAKE_CERAMIC2_p3_k2_2 t_Init_0) 0) (>= (- t_Goal_6 t_BAKE_CERAMIC2_p3_k2_2) 10) (>= (- t_MAKE_STRUCTURE_p3_p4_4 t_Init_0) 0) (>= (- t_Goal_6 t_MAKE_STRUCTURE_p3_p4_4) 1) (>= (- t_BAKE_STRUCTURE_p3_p4_k1_5 t_Init_0) 0) (>= ?v_17 3) (>= (- t_FIRE_KILN1_k1_1 t_Init_0) 0) (>= (- t_Goal_6 t_FIRE_KILN1_k1_1) 8) (>= (- t_BAKE_CERAMIC3_p5_k1_2 t_Init_0) 0) (>= ?v_19 5) (<= ?v_0 8) (< ?v_0 8) (>= ?v_0 0) (>= (- t_MAKE_STRUCTURE_p1_p2_4 t_TREAT_CERAMIC2_p2_3) 2) ?v_3 ?v_4 ?v_5 (<= ?v_1 10) (< ?v_1 10) (>= ?v_1 0) (>= (- t_MAKE_STRUCTURE_p1_p2_4 t_BAKE_CERAMIC2_p2_k2_2) 10) (<= ?v_2 12) (< ?v_2 12) (>= ?v_2 0) (>= (- t_MAKE_STRUCTURE_p1_p2_4 t_TREAT_CERAMIC1_p1_3) 3) ?v_3 ?v_4 ?v_5 (< ?v_6 5) (>= ?v_6 0) (>= (- t_MAKE_STRUCTURE_p1_p2_4 t_BAKE_CERAMIC1_p1_k2_2) 15) (>= (- t_BAKE_STRUCTURE_p1_p2_k1_5 t_MAKE_STRUCTURE_p1_p2_4) 1) ?v_14 ?v_15 (<= ?v_7 5) (< ?v_7 5) (>= ?v_7 0) (>= ?v_8 4) ?v_3 ?v_4 (< ?v_9 15) (>= ?v_9 0) (<= ?v_10 4) (>= ?v_10 0) (>= (- t_MAKE_STRUCTURE_p3_p4_4 t_TREAT_CERAMIC3_p4_3) 1) (<= ?v_11 3) (>= ?v_11 0) (>= (- t_MAKE_STRUCTURE_p3_p4_4 t_BAKE_CERAMIC3_p4_k1_3) 5) (<= ?v_12 8) (< ?v_12 8) (>= ?v_12 0) (>= (- t_MAKE_STRUCTURE_p3_p4_4 t_TREAT_CERAMIC2_p3_3) 2) ?v_3 (>= ?v_13 0) (>= (- t_MAKE_STRUCTURE_p3_p4_4 t_BAKE_CERAMIC2_p3_k2_2) 10) (>= (- t_BAKE_STRUCTURE_p3_p4_k1_5 t_MAKE_STRUCTURE_p3_p4_4) 1) ?v_14 ?v_15 (< ?v_16 5) (>= ?v_16 0) (>= ?v_17 4) ?v_14 (>= ?v_18 0) (>= ?v_19 6) (or (<= ?v_25 3) ?v_24) (or ?v_23 (< (- t_BAKE_STRUCTURE_p1_p2_k1_5 t_FIRE_KILN1_k1_2) 5)) (or (>= (- t_BAKE_CERAMIC3_p4_k2_2 t_MAKE_STRUCTURE_p3_p4_4) 1) (< ?v_22 5)) ?v_21 ?v_21 (or (> ?v_22 5) (< (- t_TREAT_CERAMIC3_p4_3 t_BAKE_CERAMIC3_p4_k1_3) 4)) (or (<= (- t_BAKE_CERAMIC3_p5_k1_2 t_FIRE_KILN1_k1_2) 3) ?v_23) (or (<= (- t_BAKE_STRUCTURE_p3_p4_k1_5 t_FIRE_KILN1_k1_2) 5) ?v_23) (or ?v_24 (< ?v_25 3)))))))))))
(check-sat)
(exit)
